benchmarks/bfuzz0/188281667820443287501767960641067610287.smt2
(set-logic QF_FP)
(declare-const x0 (_ FloatingPoint 11 53))
(declare-const x1 (_ FloatingPoint 11 53))
(declare-const x2 (_ FloatingPoint 11 53))
(declare-const x3 (_ FloatingPoint 11 53))
(declare-const x4 (_ FloatingPoint 11 53))
(declare-const x5 (_ FloatingPoint 11 53))
(declare-const x6 (_ FloatingPoint 11 53))
(declare-const x7 (_ FloatingPoint 11 53))
(declare-const x8 (_ FloatingPoint 11 53))
(declare-const x9 (_ FloatingPoint 11 53))
(assert (fp.leq (fp.div RNE (fp.sub RNE x6 x6) (fp.sub RNE x0 x3)) (fp.div RNE (fp.add RNE x4 x2) (fp.neg x6))))
(assert (fp.eq (fp.add RNE (fp.neg x5) (fp.mul RNE x2 x6)) (fp.mul RNE (fp.neg x6) (fp.neg x1))))
(assert (fp.eq (fp.mul RNE (fp.sub RNE x0 x4) (fp.neg x1)) (fp.div RNE (fp.mul RNE x4 x4) (fp.mul RNE x1 x0))))
(assert (fp.geq (fp.div RNE (fp.neg x5) (fp.neg x9)) (fp.div RNE (fp.neg x4) (fp.add RNE x9 x0))))
(check-sat)
