db/data/188281667820443287501767960641067610287.z3.out
-------------------
2500.094445924
